(set-logic QF_S)
(declare-fun var0 () String)
(declare-fun var1 () Int)
(declare-fun var2 () Int)
(declare-fun var3 () Int)
(declare-fun var4 () Int)
(declare-fun var5 () String)
(declare-fun var6 () String)
(declare-fun var7 () String)
(assert (str.prefixof (str.substr var0 var1 var2) (str.substr "" var3 var4)))
(assert (<= (str.len var5) (str.indexof var6 var7 var2)))
(assert (str.prefixof "@GHg" var6))
(assert (str.prefixof (str.substr var7 7 var2) (str.replace var6 var5 var7)))
(check-sat)